<number of tasks>
20


<number of equipment>
5


<cycle time>
1000


<investment costs>
1,15147
2,8423
3,7042
4,10371
5,16891


<task times>
1,-1,436,498,437,-1
2,465,-1,-1,478,348
3,212,-1,302,-1,-1
4,328,-1,-1,344,307
5,268,-1,-1,244,234
6,-1,468,475,439,-1
7,357,-1,-1,448,426
8,335,-1,-1,336,202
9,317,-1,488,-1,-1
10,-1,457,455,436,-1
11,245,-1,-1,233,298
12,-1,314,401,393,-1
13,-1,443,493,356,-1
14,-1,430,357,402,-1
15,-1,384,376,350,-1
16,-1,252,493,335,-1
17,187,-1,-1,419,283
18,-1,459,485,440,-1
19,-1,345,309,388,-1
20,356,-1,498,-1,-1


<precedence relations>
2,3
2,4
2,5
2,6
2,7
3,9
4,10
4,11
6,8
8,16
9,13
9,15
11,12
11,14
13,17
14,18
15,19
16,20


<task types>
1,3
2,2
3,1
4,2
5,2
6,3
7,2
8,2
9,1
10,3
11,2
12,3
13,3
14,3
15,3
16,3
17,2
18,3
19,3
20,1


<line depot>
1,0
2,0
3,5
4,6
5,0


<processing costs>
1,14400
2,7200
3,14400
4,14400
5,7200


<saving costs>
1,1514
2,842
3,704
4,1037
5,1689


<end>
